Cost:    2273.62
Running time:       0.06

Solution: 
0     14     13      0      
0      3     10     11     19     36      8     18      5     16     15     41     22     23     21      0      
0     37     44     38     43     42      2     31     30     32     20      9     35     34     33      1      0      
0     53     57     56     54     50     51     63     48     47     49     46     45     52      0      
0     69     62     64     66     65     68     67     61     59     58      0      
0     73     74     75     72     80     76     77     79     81     71     70     82     83     84     60      0      
0     94     87     91     86     85     93     96     89      7     88    101      0      
0    106    107    103    102    109    110    105    117     97     92    100     98    104     99     95      0      
0    111    116    122    108    114    118     17    113    119    115    112      0      
0    133    130    121    129     78    120    128    131    126    123    124    125    127    132      0      
0    146    148    143     90    136    135    134    139    138    137    145    144    142    140    141      6      0      
0     27     28     12    150     29     24     55     25     39      4    149     26     40    147      0      
